SDVRP instances/p01/p01_1050_tsplib0_split0.vrp
NAME:.\SDVRP_split
BEST_KNOWN: 0
COMMENT: 0
DIMENSION: 208
CAPACITY: 160
EDGE_WEIGHT_FORMAT: FUNCTION
EDGE_WEIGHT_TYPE: EXACT_2D
NODE_COORD_SECTION
1 0.00000 0.00000
2 7 12
3 7 12
4 7 12
5 7 12
6 7 12
7 19 9
8 19 9
9 19 9
10 22 24
11 22 24
12 22 24
13 22 24
14 22 24
15 -10 -14
16 -10 -14
17 -10 -14
18 -10 -14
19 10 -10
20 10 -10
21 10 -10
22 10 -10
23 -9 7
24 -9 7
25 -9 7
26 -9 7
27 -9 7
28 -9 7
29 -13 23
30 -13 23
31 -13 23
32 -13 23
33 -13 23
34 -13 23
35 1 22
36 1 22
37 1 22
38 1 22
39 1 22
40 22 -7
41 22 -7
42 22 -7
43 22 -7
44 22 -7
45 21 -19
46 21 -19
47 12 1
48 12 1
49 12 1
50 12 1
51 1 -8
52 1 -8
53 1 -8
54 -25 -15
55 -25 -15
56 -25 -15
57 -25 -15
58 -25 -15
59 -18 2
60 -18 2
61 -18 2
62 6 -24
63 6 -24
64 6 -24
65 6 -24
66 6 -24
67 22 1
68 22 1
69 22 1
70 -3 -17
71 -3 -17
72 -3 -17
73 -3 -17
74 -13 -7
75 -13 -7
76 -17 -27
77 -17 -27
78 -17 -27
79 -17 -27
80 -17 -27
81 27 18
82 27 18
83 27 18
84 32 2
85 32 2
86 32 2
87 32 2
88 12 17
89 12 17
90 12 17
91 -14 17
92 -14 17
93 -14 17
94 -14 17
95 -22 12
96 -22 12
97 -22 12
98 -22 12
99 -22 12
100 -23 -2
101 -23 -2
102 -23 -2
103 -3 28
104 -3 28
105 -3 28
106 -3 28
107 -3 28
108 -3 28
109 0 8
110 0 8
111 13 27
112 13 27
113 13 27
114 28 8
115 28 8
116 28 8
117 28 -13
118 28 -13
119 28 -13
120 28 -13
121 7 29
122 7 29
123 7 29
124 7 29
125 7 29
126 8 6
127 8 6
128 8 6
129 8 6
130 16 -30
131 16 -30
132 16 -30
133 16 -30
134 16 -30
135 31 -7
136 31 -7
137 31 -7
138 31 -7
139 31 -7
140 32 23
141 32 23
142 32 23
143 32 23
144 32 23
145 33 29
146 33 29
147 33 29
148 33 29
149 33 29
150 2 -18
151 2 -18
152 2 -18
153 15 -5
154 15 -5
155 15 -5
156 15 -5
157 15 -5
158 29 -25
159 29 -25
160 29 -25
161 29 -25
162 29 -25
163 29 -25
164 -25 -34
165 -25 -34
166 -25 -34
167 -25 -34
168 -25 -34
169 -20 -23
170 -20 -23
171 -20 -23
172 -20 -23
173 -9 -30
174 -9 -30
175 -9 -30
176 -25 24
177 -25 24
178 -25 24
179 0 -25
180 0 -25
181 0 -25
182 0 -25
183 9 -30
184 9 -30
185 9 -30
186 2 -1
187 2 -1
188 -5 -8
189 -5 -8
190 -5 -8
191 -5 -8
192 -5 -8
193 -5 -8
194 -5 15
195 -5 15
196 -5 15
197 -5 15
198 18 -12
199 18 -12
200 18 -12
201 18 -12
202 18 -12
203 26 -3
204 26 -3
205 26 -3
206 26 -3
207 26 -3
208 26 -3
DEMAND_SECTION
1 0
2 32
3 32
4 2
5 2
6 2
7 32
8 8
9 1
10 16
11 8
12 2
13 2
14 2
15 32
16 16
17 2
18 1
19 32
20 32
21 8
22 2
23 32
24 32
25 2
26 2
27 2
28 1
29 32
30 8
31 2
32 2
33 2
34 1
35 16
36 2
37 2
38 2
39 1
40 16
41 8
42 2
43 2
44 1
45 16
46 2
47 32
48 32
49 2
50 1
51 32
52 8
53 1
54 32
55 8
56 2
57 2
58 1
59 32
60 16
61 1
62 32
63 16
64 8
65 2
66 2
67 32
68 2
69 1
70 16
71 2
72 2
73 1
74 32
75 16
76 32
77 32
78 2
79 2
80 2
81 32
82 16
83 2
84 16
85 2
86 2
87 2
88 32
89 16
90 8
91 32
92 16
93 8
94 1
95 32
96 16
97 2
98 2
99 1
100 32
101 32
102 2
103 32
104 16
105 8
106 2
107 2
108 2
109 16
110 2
111 32
112 32
113 1
114 16
115 8
116 1
117 16
118 2
119 2
120 2
121 32
122 32
123 2
124 2
125 2
126 32
127 32
128 2
129 1
130 32
131 32
132 2
133 2
134 1
135 16
136 8
137 2
138 2
139 1
140 32
141 32
142 2
143 2
144 2
145 32
146 8
147 2
148 2
149 2
150 32
151 32
152 1
153 32
154 8
155 2
156 2
157 2
158 32
159 8
160 2
161 2
162 2
163 1
164 32
165 32
166 2
167 2
168 1
169 16
170 8
171 2
172 2
173 16
174 2
175 2
176 32
177 16
178 8
179 32
180 16
181 8
182 2
183 32
184 32
185 8
186 32
187 2
188 32
189 8
190 2
191 2
192 2
193 1
194 32
195 8
196 2
197 1
198 32
199 32
200 2
201 2
202 2
203 32
204 16
205 2
206 2
207 2
208 1
DEPOT_SECTION
1
-1
EOF