SDVRP instances/p01/p01_1050_tsplib0_split0.sol
207 -3 4 1 2 5 89 87 88 125 127 -7 8 6 80 82 81 110 112 111 -10 13 12 11 9 144 146 148 145 147 139 143 142 140 141 115 114 -16 17 14 179 180 181 178 150 151 149 -19 20 21 18 50 52 51 187 190 188 -25 24 26 27 22 23 194 195 196 193 108 109 -28 33 32 29 31 30 176 177 175 93 90 91 92 -36 37 38 34 35 102 107 105 106 103 104 122 121 123 124 120 -44 45 133 131 130 132 129 162 158 159 157 160 161 118 116 119 117 -65 63 64 62 61 184 182 183 69 71 72 70 -68 67 66 206 205 207 204 203 202 138 137 136 134 135 84 86 83 85 113 -74 73 60 59 58 98 97 96 95 94 -76 78 79 77 75 167 164 166 165 163 172 174 173 -100 99 101 56 54 55 53 57 171 170 169 168 15 192 189 191 -128 126 49 48 46 47 186 185 -156 154 152 155 153 42 41 39 43 40 197 199 198 201 200 0 





OBJ=
1044.248
BEST_KNOWN=
0.000